c File: flat50_3_0.col
c
c SOURCE: Joseph Culberson (joe@cs.ualberta.ca)
c DESCRIPTION: Quasi-random coloring problem
c              generated with flatness = 0
c                             probability = 0.139
c                             known coloring = 3
c                             random seed = 1391
c              Creation Date:  Tue Jun  9 12:08:13 1998
c Maximum degree = 8 Minimum degree = 1
c p edge 50 115
c cnf created by edge2cnf
p cnf 150 545
-1 -2 0
-1 -3 0
-2 -3 0
1 2 3 0
-4 -5 0
-4 -6 0
-5 -6 0
4 5 6 0
-7 -8 0
-7 -9 0
-8 -9 0
7 8 9 0
-10 -11 0
-10 -12 0
-11 -12 0
10 11 12 0
-13 -14 0
-13 -15 0
-14 -15 0
13 14 15 0
-16 -17 0
-16 -18 0
-17 -18 0
16 17 18 0
-19 -20 0
-19 -21 0
-20 -21 0
19 20 21 0
-22 -23 0
-22 -24 0
-23 -24 0
22 23 24 0
-25 -26 0
-25 -27 0
-26 -27 0
25 26 27 0
-28 -29 0
-28 -30 0
-29 -30 0
28 29 30 0
-31 -32 0
-31 -33 0
-32 -33 0
31 32 33 0
-34 -35 0
-34 -36 0
-35 -36 0
34 35 36 0
-37 -38 0
-37 -39 0
-38 -39 0
37 38 39 0
-40 -41 0
-40 -42 0
-41 -42 0
40 41 42 0
-43 -44 0
-43 -45 0
-44 -45 0
43 44 45 0
-46 -47 0
-46 -48 0
-47 -48 0
46 47 48 0
-49 -50 0
-49 -51 0
-50 -51 0
49 50 51 0
-52 -53 0
-52 -54 0
-53 -54 0
52 53 54 0
-55 -56 0
-55 -57 0
-56 -57 0
55 56 57 0
-58 -59 0
-58 -60 0
-59 -60 0
58 59 60 0
-61 -62 0
-61 -63 0
-62 -63 0
61 62 63 0
-64 -65 0
-64 -66 0
-65 -66 0
64 65 66 0
-67 -68 0
-67 -69 0
-68 -69 0
67 68 69 0
-70 -71 0
-70 -72 0
-71 -72 0
70 71 72 0
-73 -74 0
-73 -75 0
-74 -75 0
73 74 75 0
-76 -77 0
-76 -78 0
-77 -78 0
76 77 78 0
-79 -80 0
-79 -81 0
-80 -81 0
79 80 81 0
-82 -83 0
-82 -84 0
-83 -84 0
82 83 84 0
-85 -86 0
-85 -87 0
-86 -87 0
85 86 87 0
-88 -89 0
-88 -90 0
-89 -90 0
88 89 90 0
-91 -92 0
-91 -93 0
-92 -93 0
91 92 93 0
-94 -95 0
-94 -96 0
-95 -96 0
94 95 96 0
-97 -98 0
-97 -99 0
-98 -99 0
97 98 99 0
-100 -101 0
-100 -102 0
-101 -102 0
100 101 102 0
-103 -104 0
-103 -105 0
-104 -105 0
103 104 105 0
-106 -107 0
-106 -108 0
-107 -108 0
106 107 108 0
-109 -110 0
-109 -111 0
-110 -111 0
109 110 111 0
-112 -113 0
-112 -114 0
-113 -114 0
112 113 114 0
-115 -116 0
-115 -117 0
-116 -117 0
115 116 117 0
-118 -119 0
-118 -120 0
-119 -120 0
118 119 120 0
-121 -122 0
-121 -123 0
-122 -123 0
121 122 123 0
-124 -125 0
-124 -126 0
-125 -126 0
124 125 126 0
-127 -128 0
-127 -129 0
-128 -129 0
127 128 129 0
-130 -131 0
-130 -132 0
-131 -132 0
130 131 132 0
-133 -134 0
-133 -135 0
-134 -135 0
133 134 135 0
-136 -137 0
-136 -138 0
-137 -138 0
136 137 138 0
-139 -140 0
-139 -141 0
-140 -141 0
139 140 141 0
-142 -143 0
-142 -144 0
-143 -144 0
142 143 144 0
-145 -146 0
-145 -147 0
-146 -147 0
145 146 147 0
-148 -149 0
-148 -150 0
-149 -150 0
148 149 150 0
-85 -1 0
-86 -2 0
-87 -3 0
-94 -1 0
-95 -2 0
-96 -3 0
-100 -1 0
-101 -2 0
-102 -3 0
-130 -1 0
-131 -2 0
-132 -3 0
-133 -1 0
-134 -2 0
-135 -3 0
-76 -4 0
-77 -5 0
-78 -6 0
-91 -4 0
-92 -5 0
-93 -6 0
-94 -4 0
-95 -5 0
-96 -6 0
-106 -4 0
-107 -5 0
-108 -6 0
-79 -7 0
-80 -8 0
-81 -9 0
-82 -7 0
-83 -8 0
-84 -9 0
-91 -7 0
-92 -8 0
-93 -9 0
-70 -10 0
-71 -11 0
-72 -12 0
-79 -10 0
-80 -11 0
-81 -12 0
-100 -10 0
-101 -11 0
-102 -12 0
-121 -10 0
-122 -11 0
-123 -12 0
-148 -10 0
-149 -11 0
-150 -12 0
-52 -13 0
-53 -14 0
-54 -15 0
-70 -13 0
-71 -14 0
-72 -15 0
-91 -13 0
-92 -14 0
-93 -15 0
-97 -13 0
-98 -14 0
-99 -15 0
-109 -13 0
-110 -14 0
-111 -15 0
-115 -13 0
-116 -14 0
-117 -15 0
-127 -13 0
-128 -14 0
-129 -15 0
-148 -13 0
-149 -14 0
-150 -15 0
-97 -16 0
-98 -17 0
-99 -18 0
-145 -16 0
-146 -17 0
-147 -18 0
-76 -19 0
-77 -20 0
-78 -21 0
-88 -19 0
-89 -20 0
-90 -21 0
-100 -19 0
-101 -20 0
-102 -21 0
-115 -22 0
-116 -23 0
-117 -24 0
-52 -25 0
-53 -26 0
-54 -27 0
-61 -25 0
-62 -26 0
-63 -27 0
-109 -25 0
-110 -26 0
-111 -27 0
-112 -25 0
-113 -26 0
-114 -27 0
-139 -25 0
-140 -26 0
-141 -27 0
-148 -25 0
-149 -26 0
-150 -27 0
-76 -28 0
-77 -29 0
-78 -30 0
-91 -28 0
-92 -29 0
-93 -30 0
-106 -28 0
-107 -29 0
-108 -30 0
-109 -28 0
-110 -29 0
-111 -30 0
-127 -28 0
-128 -29 0
-129 -30 0
-52 -31 0
-53 -32 0
-54 -33 0
-79 -31 0
-80 -32 0
-81 -33 0
-82 -31 0
-83 -32 0
-84 -33 0
-97 -31 0
-98 -32 0
-99 -33 0
-109 -31 0
-110 -32 0
-111 -33 0
-115 -31 0
-116 -32 0
-117 -33 0
-118 -31 0
-119 -32 0
-120 -33 0
-133 -31 0
-134 -32 0
-135 -33 0
-58 -34 0
-59 -35 0
-60 -36 0
-61 -34 0
-62 -35 0
-63 -36 0
-79 -34 0
-80 -35 0
-81 -36 0
-133 -34 0
-134 -35 0
-135 -36 0
-142 -34 0
-143 -35 0
-144 -36 0
-145 -34 0
-146 -35 0
-147 -36 0
-70 -37 0
-71 -38 0
-72 -39 0
-112 -37 0
-113 -38 0
-114 -39 0
-142 -37 0
-143 -38 0
-144 -39 0
-148 -37 0
-149 -38 0
-150 -39 0
-52 -40 0
-53 -41 0
-54 -42 0
-55 -40 0
-56 -41 0
-57 -42 0
-73 -40 0
-74 -41 0
-75 -42 0
-103 -40 0
-104 -41 0
-105 -42 0
-106 -40 0
-107 -41 0
-108 -42 0
-130 -40 0
-131 -41 0
-132 -42 0
-145 -40 0
-146 -41 0
-147 -42 0
-82 -43 0
-83 -44 0
-84 -45 0
-103 -43 0
-104 -44 0
-105 -45 0
-142 -43 0
-143 -44 0
-144 -45 0
-55 -46 0
-56 -47 0
-57 -48 0
-88 -46 0
-89 -47 0
-90 -48 0
-142 -46 0
-143 -47 0
-144 -48 0
-58 -49 0
-59 -50 0
-60 -51 0
-100 -49 0
-101 -50 0
-102 -51 0
-106 -49 0
-107 -50 0
-108 -51 0
-133 -49 0
-134 -50 0
-135 -51 0
-139 -49 0
-140 -50 0
-141 -51 0
-148 -52 0
-149 -53 0
-150 -54 0
-118 -55 0
-119 -56 0
-120 -57 0
-106 -58 0
-107 -59 0
-108 -60 0
-121 -58 0
-122 -59 0
-123 -60 0
-115 -61 0
-116 -62 0
-117 -63 0
-127 -61 0
-128 -62 0
-129 -63 0
-145 -61 0
-146 -62 0
-147 -63 0
-118 -64 0
-119 -65 0
-120 -66 0
-133 -64 0
-134 -65 0
-135 -66 0
-136 -67 0
-137 -68 0
-138 -69 0
-109 -70 0
-110 -71 0
-111 -72 0
-106 -73 0
-107 -74 0
-108 -75 0
-112 -73 0
-113 -74 0
-114 -75 0
-115 -73 0
-116 -74 0
-117 -75 0
-124 -73 0
-125 -74 0
-126 -75 0
-109 -76 0
-110 -77 0
-111 -78 0
-127 -76 0
-128 -77 0
-129 -78 0
-136 -79 0
-137 -80 0
-138 -81 0
-148 -79 0
-149 -80 0
-150 -81 0
-136 -82 0
-137 -83 0
-138 -84 0
-145 -82 0
-146 -83 0
-147 -84 0
-112 -85 0
-113 -86 0
-114 -87 0
-118 -85 0
-119 -86 0
-120 -87 0
-136 -85 0
-137 -86 0
-138 -87 0
-148 -85 0
-149 -86 0
-150 -87 0
-112 -88 0
-113 -89 0
-114 -90 0
-115 -88 0
-116 -89 0
-117 -90 0
-148 -91 0
-149 -92 0
-150 -93 0
-109 -94 0
-110 -95 0
-111 -96 0
-124 -94 0
-125 -95 0
-126 -96 0
-133 -94 0
-134 -95 0
-135 -96 0
-115 -97 0
-116 -98 0
-117 -99 0
-127 -97 0
-128 -98 0
-129 -99 0
-106 -100 0
-107 -101 0
-108 -102 0
-118 -100 0
-119 -101 0
-120 -102 0
-124 -100 0
-125 -101 0
-126 -102 0
-142 -100 0
-143 -101 0
-144 -102 0
